#pLT is two-dimensional [i,r]=[component, individual]
#[i,*] means all data in row i.

param pLT := 
[1,*]
1  0    2  6    3  7    4  5    5  8    6  3    

[2,*]
1  2    2  5    3  4    4  6    5  2    6  6    
;